% Pruned 49989 learnt clauses
% Pruned 49989 learnt clauses
% Pruned 49985 learnt clauses
% Pruned 49989 learnt clauses
% Pruned 49988 learnt clauses
% Pruned 49987 learnt clauses
% Pruned 49987 learnt clauses
% Pruned 49989 learnt clauses
% Pruned 49985 learnt clauses
% Pruned 49988 learnt clauses
% Pruned 49987 learnt clauses
% Pruned 49985 learnt clauses
% Pruned 49984 learnt clauses
% Pruned 49983 learnt clauses
% Pruned 49988 learnt clauses
% Pruned 49985 learnt clauses
% Pruned 49987 learnt clauses
% Pruned 49988 learnt clauses
% Pruned 49990 learnt clauses
% Pruned 49988 learnt clauses
% Pruned 49982 learnt clauses
% Pruned 49972 learnt clauses
% Pruned 49972 learnt clauses
% Pruned 49971 learnt clauses
% Pruned 49973 learnt clauses
% Pruned 49982 learnt clauses
% Pruned 49987 learnt clauses
% Pruned 49967 learnt clauses
% Pruned 49969 learnt clauses
% Pruned 49969 learnt clauses
% Pruned 49971 learnt clauses
% Pruned 49975 learnt clauses
% Pruned 49971 learnt clauses
% Pruned 49973 learnt clauses
% Pruned 49972 learnt clauses
% Pruned 49978 learnt clauses
% Pruned 49974 learnt clauses
% Pruned 49973 learnt clauses
% Pruned 49969 learnt clauses
% Pruned 49977 learnt clauses
% Pruned 49975 learnt clauses
% Pruned 49974 learnt clauses
% Pruned 49989 learnt clauses
% Pruned 49965 learnt clauses
% Pruned 49991 learnt clauses
% Pruned 49988 learnt clauses
% Pruned 49904 learnt clauses
% Pruned 49917 learnt clauses
% Pruned 49915 learnt clauses
% Pruned 49978 learnt clauses
% Pruned 49979 learnt clauses
% Pruned 49939 learnt clauses
% Pruned 49948 learnt clauses
% Pruned 49946 learnt clauses
% Pruned 49943 learnt clauses
% Pruned 49950 learnt clauses
% Pruned 49942 learnt clauses
% Pruned 49939 learnt clauses
% Pruned 49949 learnt clauses
% Pruned 49944 learnt clauses
% Pruned 49934 learnt clauses
% Pruned 49936 learnt clauses
% Pruned 49939 learnt clauses
% Pruned 49936 learnt clauses
% Pruned 49935 learnt clauses
% Pruned 49937 learnt clauses
% Pruned 49931 learnt clauses
% Pruned 49936 learnt clauses
% Pruned 49929 learnt clauses
% Pruned 49932 learnt clauses
% Pruned 49929 learnt clauses
% Pruned 49929 learnt clauses
% Pruned 49935 learnt clauses
% Pruned 49931 learnt clauses
% Pruned 49934 learnt clauses
% Pruned 49940 learnt clauses
% Pruned 49927 learnt clauses
% Pruned 49930 learnt clauses
% Pruned 49925 learnt clauses
% Pruned 49929 learnt clauses
% Pruned 49942 learnt clauses
% Pruned 49941 learnt clauses
% Pruned 49925 learnt clauses
% Pruned 49920 learnt clauses
%%%mzn-stat: nodes=4572615
%%%mzn-stat: failures=4286148
%%%mzn-stat: restarts=1
%%%mzn-stat: variables=141690
%%%mzn-stat: intVars=442
%%%mzn-stat: boolVariables=141246
%%%mzn-stat: propagators=651
%%%mzn-stat: propagations=1471249447
%%%mzn-stat: peakDepth=315
%%%mzn-stat: nogoods=4286148
%%%mzn-stat: backjumps=286144
%%%mzn-stat: peakMem=0.00
%%%mzn-stat: time=1799.996
%%%mzn-stat: initTime=0.126
%%%mzn-stat: solveTime=1799.870
%%%mzn-stat: objective=46
%%%mzn-stat: optTime=1.669
%%%mzn-stat: baseMem=0.00
%%%mzn-stat: trailMem=0.28
%%%mzn-stat: randomSeed=-493543509
%%%mzn-stat-end
Objective value (b): 46
Labels: [15, 25, 73, 19, 38, 45, 32, 113, 110, 10, 99, 58, 52, 96, 17, 80, 27, 85, 77, 93, 31, 14, 97, 61, 92, 75, 116, 68, 79, 117, 6, 82, 30, 47, 4, 67, 101, 62, 36, 78, 29, 57, 91, 84, 60, 86, 63, 70, 65, 44, 7, 48, 8, 59, 108, 56, 89, 100, 50, 53, 51, 28, 88, 55, 9, 83, 66, 109, 64, 34, 98, 26, 43, 111, 90, 37, 20, 74, 42, 103, 2, 24, 39, 23, 16, 49, 18, 102, 54, 95, 104, 112, 3, 69, 105, 76, 115, 41, 94, 72, 106, 40, 21, 81, 11, 71, 12, 46, 87, 35, 107, 33, 22, 1, 114, 13, 5]
% time elapsed: 1800.18 s
----------
% Time limit exceeded!
